objective value:                                11072
t_x_0                                               1 	(obj:1)
t_x_2                                               1 	(obj:47)
t_x_8                                               1 	(obj:39)
t_x_9                                               1 	(obj:49)
t_x_12                                              1 	(obj:85)
t_x_23                                              1 	(obj:2)
t_x_25                                              1 	(obj:28)
t_x_26                                              1 	(obj:22)
t_x_30                                              1 	(obj:24)
t_x_31                                              1 	(obj:25)
t_x_33                                              1 	(obj:61)
t_x_36                                              1 	(obj:11)
t_x_38                                              1 	(obj:48)
t_x_39                                              1 	(obj:34)
t_x_41                                              1 	(obj:7)
t_x_43                                              1 	(obj:23)
t_x_48                                              1 	(obj:18)
t_x_50                                              1 	(obj:28)
t_x_54                                              1 	(obj:29)
t_x_57                                              1 	(obj:18)
t_x_61                                              1 	(obj:8)
t_x_63                                              1 	(obj:43)
t_x_67                                              1 	(obj:0)
t_x_70                                              1 	(obj:58)
t_x_71                                              1 	(obj:2)
t_x_73                                              1 	(obj:16)
t_x_75                                              1 	(obj:25)
t_x_79                                              1 	(obj:27)
t_x_80                                              1 	(obj:23)
t_x_82                                              1 	(obj:8)
t_x_83                                              1 	(obj:4)
t_x_85                                              1 	(obj:25)
t_x_88                                              1 	(obj:20)
t_x_90                                              1 	(obj:0)
t_x_91                                              1 	(obj:15)
t_x_94                                              1 	(obj:16)
t_x_95                                              1 	(obj:23)
t_x_103                                             1 	(obj:38)
t_x_111                                             1 	(obj:22)
t_x_117                                             1 	(obj:50)
t_x_120                                             1 	(obj:28)
t_x_122                                             1 	(obj:26)
t_x_126                                             1 	(obj:22)
t_x_129                                             1 	(obj:32)
t_x_131                                             1 	(obj:5)
t_x_134                                             1 	(obj:18)
t_x_135                                             1 	(obj:1)
t_x_139                                             1 	(obj:16)
t_x_144                                             1 	(obj:1)
t_x_146                                             1 	(obj:37)
t_x_147                                             1 	(obj:33)
t_x_152                                             1 	(obj:3)
t_x_158                                             1 	(obj:3)
t_x_160                                             1 	(obj:22)
t_x_161                                             1 	(obj:14)
t_x_163                                             1 	(obj:17)
t_x_166                                             1 	(obj:1)
t_x_168                                             1 	(obj:33)
t_x_169                                             1 	(obj:10)
t_x_175                                             1 	(obj:38)
t_x_186                                             1 	(obj:8)
t_x_188                                             1 	(obj:9)
t_x_195                                             1 	(obj:15)
t_x_196                                             1 	(obj:33)
t_x_207                                             1 	(obj:20)
t_x_209                                             1 	(obj:22)
t_x_210                                             1 	(obj:3)
t_x_211                                             1 	(obj:10)
t_x_223                                             1 	(obj:49)
t_x_230                                             1 	(obj:21)
t_x_236                                             1 	(obj:14)
t_x_238                                             1 	(obj:38)
t_x_243                                             1 	(obj:2)
t_x_244                                             1 	(obj:48)
t_x_246                                             1 	(obj:29)
t_x_257                                             1 	(obj:0)
t_x_260                                             1 	(obj:22)
t_x_262                                             1 	(obj:12)
t_x_265                                             1 	(obj:29)
t_x_267                                             1 	(obj:24)
t_x_283                                             1 	(obj:11)
t_x_286                                             1 	(obj:16)
t_x_289                                             1 	(obj:17)
t_x_292                                             1 	(obj:28)
t_x_295                                             1 	(obj:38)
t_x_296                                             1 	(obj:17)
t_x_301                                             1 	(obj:40)
t_x_303                                             1 	(obj:6)
t_x_304                                             1 	(obj:39)
t_x_306                                             1 	(obj:8)
t_x_308                                             1 	(obj:5)
t_x_310                                             1 	(obj:10)
t_x_312                                             1 	(obj:42)
t_x_313                                             1 	(obj:0)
t_x_315                                             1 	(obj:2)
t_x_316                                             1 	(obj:5)
t_x_317                                             1 	(obj:5)
t_x_319                                             1 	(obj:4)
t_x_320                                             1 	(obj:67)
t_x_322                                             1 	(obj:34)
t_x_323                                             1 	(obj:7)
t_x_329                                             1 	(obj:27)
t_x_330                                             1 	(obj:38)
t_x_337                                             1 	(obj:17)
t_x_340                                             1 	(obj:36)
t_x_345                                             1 	(obj:9)
t_x_347                                             1 	(obj:47)
t_x_351                                             1 	(obj:30)
t_x_353                                             1 	(obj:15)
t_x_355                                             1 	(obj:6)
t_x_357                                             1 	(obj:36)
t_x_359                                             1 	(obj:24)
t_x_361                                             1 	(obj:8)
t_x_365                                             1 	(obj:25)
t_x_367                                             1 	(obj:4)
t_x_370                                             1 	(obj:6)
t_x_376                                             1 	(obj:1)
t_x_378                                             1 	(obj:19)
t_x_379                                             1 	(obj:25)
t_x_380                                             1 	(obj:17)
t_x_382                                             1 	(obj:16)
t_x_385                                             1 	(obj:22)
t_x_387                                             1 	(obj:6)
t_x_391                                             1 	(obj:19)
t_x_395                                             1 	(obj:1)
t_x_398                                             1 	(obj:25)
t_x_399                                             1 	(obj:18)
t_x_402                                             1 	(obj:28)
t_x_403                                             1 	(obj:8)
t_x_405                                             1 	(obj:17)
t_x_420                                             1 	(obj:19)
t_x_422                                             1 	(obj:17)
t_x_430                                             1 	(obj:14)
t_x_435                                             1 	(obj:3)
t_x_438                                             1 	(obj:39)
t_x_441                                             1 	(obj:6)
t_x_443                                             1 	(obj:18)
t_x_445                                             1 	(obj:3)
t_x_447                                             1 	(obj:13)
t_x_448                                             1 	(obj:7)
t_x_462                                             1 	(obj:21)
t_x_466                                             1 	(obj:45)
t_x_467                                             1 	(obj:22)
t_x_469                                             1 	(obj:23)
t_x_470                                             1 	(obj:66)
t_x_473                                             1 	(obj:26)
t_x_478                                             1 	(obj:22)
t_x_480                                             1 	(obj:3)
t_x_482                                             1 	(obj:6)
t_x_483                                             1 	(obj:27)
t_x_484                                             1 	(obj:0)
t_x_485                                             1 	(obj:1)
t_x_492                                             1 	(obj:16)
t_x_497                                             1 	(obj:4)
t_x_499                                             1 	(obj:2)
t_x_501                                             1 	(obj:18)
t_x_506                                             1 	(obj:10)
t_x_509                                             1 	(obj:34)
t_x_510                                             1 	(obj:10)
t_x_515                                             1 	(obj:6)
t_x_519                                             1 	(obj:11)
t_x_524                                             1 	(obj:25)
t_x_525                                             1 	(obj:19)
t_x_526                                             1 	(obj:34)
t_x_529                                             1 	(obj:4)
t_x_532                                             1 	(obj:11)
t_x_536                                             1 	(obj:19)
t_x_540                                             1 	(obj:11)
t_x_541                                             1 	(obj:2)
t_x_542                                             1 	(obj:1)
t_x_547                                             1 	(obj:0)
t_x_548                                             1 	(obj:7)
t_x_549                                             1 	(obj:16)
t_x_556                                             1 	(obj:19)
t_x_559                                             1 	(obj:7)
t_x_566                                             1 	(obj:9)
t_x_567                                             1 	(obj:6)
t_x_574                                             1 	(obj:27)
t_x_575                                             1 	(obj:10)
t_x_582                                             1 	(obj:42)
t_x_584                                             1 	(obj:7)
t_x_595                                             1 	(obj:27)
t_x_612                                             1 	(obj:1)
t_x_613                                             1 	(obj:3)
t_x_623                                             1 	(obj:7)
t_x_624                                             1 	(obj:0)
t_x_626                                             1 	(obj:2)
t_x_627                                             1 	(obj:46)
t_x_632                                             1 	(obj:24)
t_x_634                                             1 	(obj:6)
t_x_637                                             1 	(obj:35)
t_x_638                                             1 	(obj:21)
t_x_643                                             1 	(obj:4)
t_x_646                                             1 	(obj:3)
t_x_653                                             1 	(obj:37)
t_x_655                                             1 	(obj:11)
t_x_657                                             1 	(obj:19)
t_x_662                                             1 	(obj:0)
t_x_663                                             1 	(obj:31)
t_x_673                                             1 	(obj:0)
t_x_676                                             1 	(obj:13)
t_x_677                                             1 	(obj:27)
t_x_683                                             1 	(obj:1)
t_x_684                                             1 	(obj:8)
t_x_693                                             1 	(obj:20)
t_x_698                                             1 	(obj:23)
t_x_705                                             1 	(obj:3)
t_x_713                                             1 	(obj:12)
t_x_715                                             1 	(obj:17)
t_x_717                                             1 	(obj:1)
t_x_720                                             1 	(obj:48)
t_x_724                                             1 	(obj:13)
t_x_732                                             1 	(obj:11)
t_x_733                                             1 	(obj:45)
t_x_737                                             1 	(obj:8)
t_x_741                                             1 	(obj:10)
t_x_746                                             1 	(obj:15)
t_x_752                                             1 	(obj:61)
t_x_755                                             1 	(obj:24)
t_x_756                                             1 	(obj:40)
t_x_758                                             1 	(obj:1)
t_x_759                                             1 	(obj:7)
t_x_761                                             1 	(obj:9)
t_x_762                                             1 	(obj:2)
t_x_763                                             1 	(obj:47)
t_x_770                                             1 	(obj:6)
t_x_772                                             1 	(obj:45)
t_x_774                                             1 	(obj:14)
t_x_777                                             1 	(obj:33)
t_x_782                                             1 	(obj:17)
t_x_783                                             1 	(obj:5)
t_x_790                                             1 	(obj:4)
t_x_796                                             1 	(obj:31)
t_x_799                                             1 	(obj:29)
t_x_803                                             1 	(obj:4)
t_x_805                                             1 	(obj:11)
t_x_806                                             1 	(obj:13)
t_x_808                                             1 	(obj:2)
t_x_822                                             1 	(obj:49)
t_x_823                                             1 	(obj:24)
t_x_825                                             1 	(obj:37)
t_x_829                                             1 	(obj:57)
t_x_844                                             1 	(obj:73)
t_x_845                                             1 	(obj:2)
t_x_849                                             1 	(obj:3)
t_x_851                                             1 	(obj:19)
t_x_855                                             1 	(obj:5)
t_x_858                                             1 	(obj:3)
t_x_860                                             1 	(obj:30)
t_x_863                                             1 	(obj:7)
t_x_864                                             1 	(obj:20)
t_x_865                                             1 	(obj:20)
t_x_869                                             1 	(obj:21)
t_x_872                                             1 	(obj:30)
t_x_873                                             1 	(obj:55)
t_x_880                                             1 	(obj:72)
t_x_881                                             1 	(obj:9)
t_x_885                                             1 	(obj:38)
t_x_888                                             1 	(obj:1)
t_x_889                                             1 	(obj:27)
t_x_897                                             1 	(obj:45)
t_x_900                                             1 	(obj:26)
t_x_903                                             1 	(obj:23)
t_x_907                                             1 	(obj:5)
t_x_909                                             1 	(obj:11)
t_x_910                                             1 	(obj:15)
t_x_911                                             1 	(obj:26)
t_x_913                                             1 	(obj:17)
t_x_914                                             1 	(obj:17)
t_x_927                                             1 	(obj:20)
t_x_936                                             1 	(obj:38)
t_x_943                                             1 	(obj:5)
t_x_944                                             1 	(obj:3)
t_x_945                                             1 	(obj:22)
t_x_947                                             1 	(obj:31)
t_x_952                                             1 	(obj:29)
t_x_953                                             1 	(obj:47)
t_x_957                                             1 	(obj:0)
t_x_963                                             1 	(obj:3)
t_x_973                                             1 	(obj:28)
t_x_974                                             1 	(obj:23)
t_x_978                                             1 	(obj:12)
t_x_980                                             1 	(obj:0)
t_x_982                                             1 	(obj:42)
t_x_986                                             1 	(obj:28)
t_x_993                                             1 	(obj:32)
t_x_997                                             1 	(obj:2)
t_x_998                                             1 	(obj:0)
t_x_1000                                            1 	(obj:25)
t_x_1001                                            1 	(obj:1)
t_x_1009                                            1 	(obj:6)
t_x_1018                                            1 	(obj:7)
t_x_1023                                            1 	(obj:31)
t_x_1027                                            1 	(obj:7)
t_x_1029                                            1 	(obj:20)
t_x_1034                                            1 	(obj:20)
t_x_1038                                            1 	(obj:22)
t_x_1044                                            1 	(obj:4)
t_x_1047                                            1 	(obj:39)
t_x_1050                                            1 	(obj:4)
t_x_1052                                            1 	(obj:16)
t_x_1053                                            1 	(obj:12)
t_x_1055                                            1 	(obj:31)
t_x_1059                                            1 	(obj:3)
t_x_1060                                            1 	(obj:40)
t_x_1061                                            1 	(obj:13)
t_x_1063                                            1 	(obj:20)
t_x_1066                                            1 	(obj:0)
t_x_1069                                            1 	(obj:2)
t_x_1070                                            1 	(obj:7)
t_x_1072                                            1 	(obj:3)
t_x_1073                                            1 	(obj:19)
t_x_1074                                            1 	(obj:0)
t_x_1077                                            1 	(obj:20)
t_x_1082                                            1 	(obj:43)
t_x_1084                                            1 	(obj:20)
t_x_1085                                            1 	(obj:14)
t_x_1087                                            1 	(obj:5)
t_x_1088                                            1 	(obj:14)
t_x_1089                                            1 	(obj:23)
t_x_1091                                            1 	(obj:27)
t_x_1093                                            1 	(obj:22)
t_x_1095                                            1 	(obj:40)
t_x_1096                                            1 	(obj:19)
t_x_1103                                            1 	(obj:22)
t_x_1106                                            1 	(obj:5)
t_x_1111                                            1 	(obj:1)
t_x_1112                                            1 	(obj:4)
t_x_1115                                            1 	(obj:4)
t_x_1116                                            1 	(obj:4)
t_x_1119                                            1 	(obj:32)
t_x_1123                                            1 	(obj:13)
t_x_1135                                            1 	(obj:6)
t_x_1139                                            1 	(obj:6)
t_x_1146                                            1 	(obj:5)
t_x_1147                                            1 	(obj:4)
t_x_1150                                            1 	(obj:27)
t_x_1151                                            1 	(obj:1)
t_x_1154                                            1 	(obj:5)
t_x_1157                                            1 	(obj:34)
t_x_1158                                            1 	(obj:4)
t_x_1162                                            1 	(obj:7)
t_x_1163                                            1 	(obj:12)
t_x_1164                                            1 	(obj:9)
t_x_1172                                            1 	(obj:20)
t_x_1173                                            1 	(obj:4)
t_x_1177                                            1 	(obj:7)
t_x_1179                                            1 	(obj:0)
t_x_1194                                            1 	(obj:8)
t_x_1197                                            1 	(obj:29)
t_x_1199                                            1 	(obj:5)
t_x_1205                                            1 	(obj:14)
t_x_1212                                            1 	(obj:12)
t_x_1218                                            1 	(obj:16)
t_x_1219                                            1 	(obj:21)
t_x_1223                                            1 	(obj:1)
t_x_1224                                            1 	(obj:4)
t_x_1227                                            1 	(obj:11)
t_x_1228                                            1 	(obj:42)
t_x_1237                                            1 	(obj:37)
t_x_1238                                            1 	(obj:20)
t_x_1239                                            1 	(obj:25)
t_x_1242                                            1 	(obj:13)
t_x_1245                                            1 	(obj:6)
t_x_1253                                            1 	(obj:10)
t_x_1254                                            1 	(obj:21)
t_x_1259                                            1 	(obj:9)
t_x_1261                                            1 	(obj:15)
t_x_1262                                            1 	(obj:17)
t_x_1263                                            1 	(obj:28)
t_x_1266                                            1 	(obj:19)
t_x_1267                                            1 	(obj:16)
t_x_1270                                            1 	(obj:6)
t_x_1272                                            1 	(obj:13)
t_x_1273                                            1 	(obj:27)
t_x_1275                                            1 	(obj:7)
t_x_1276                                            1 	(obj:14)
t_x_1277                                            1 	(obj:15)
t_x_1280                                            1 	(obj:48)
t_x_1281                                            1 	(obj:32)
t_x_1287                                            1 	(obj:14)
t_x_1288                                            1 	(obj:29)
t_x_1289                                            1 	(obj:49)
t_x_1293                                            1 	(obj:34)
t_x_1294                                            1 	(obj:48)
t_x_1297                                            1 	(obj:13)
t_x_1306                                            1 	(obj:8)
t_x_1308                                            1 	(obj:9)
t_x_1312                                            1 	(obj:9)
t_x_1315                                            1 	(obj:41)
t_x_1317                                            1 	(obj:46)
t_x_1318                                            1 	(obj:24)
t_x_1321                                            1 	(obj:45)
t_x_1322                                            1 	(obj:8)
t_x_1330                                            1 	(obj:19)
t_x_1334                                            1 	(obj:2)
t_x_1344                                            1 	(obj:8)
t_x_1350                                            1 	(obj:2)
t_x_1354                                            1 	(obj:16)
t_x_1360                                            1 	(obj:2)
t_x_1364                                            1 	(obj:10)
t_x_1365                                            1 	(obj:1)
t_x_1366                                            1 	(obj:5)
t_x_1368                                            1 	(obj:4)
t_x_1370                                            1 	(obj:24)
t_x_1372                                            1 	(obj:2)
t_x_1380                                            1 	(obj:14)
t_x_1386                                            1 	(obj:15)
t_x_1398                                            1 	(obj:21)
t_x_1399                                            1 	(obj:18)
t_x_1400                                            1 	(obj:37)
t_x_1406                                            1 	(obj:20)
t_x_1409                                            1 	(obj:66)
t_x_1412                                            1 	(obj:5)
t_x_1413                                            1 	(obj:18)
t_x_1414                                            1 	(obj:11)
t_x_1416                                            1 	(obj:3)
t_x_1418                                            1 	(obj:7)
t_x_1422                                            1 	(obj:67)
t_x_1424                                            1 	(obj:8)
t_x_1429                                            1 	(obj:29)
t_x_1434                                            1 	(obj:22)
t_x_1441                                            1 	(obj:36)
t_x_1442                                            1 	(obj:0)
t_x_1446                                            1 	(obj:34)
t_x_1448                                            1 	(obj:12)
t_x_1450                                            1 	(obj:11)
t_x_1451                                            1 	(obj:30)
t_x_1453                                            1 	(obj:16)
t_x_1454                                            1 	(obj:15)
t_x_1455                                            1 	(obj:39)
t_x_1458                                            1 	(obj:34)
t_x_1459                                            1 	(obj:29)
t_x_1463                                            1 	(obj:5)
t_x_1475                                            1 	(obj:14)
t_x_1477                                            1 	(obj:20)
t_x_1491                                            1 	(obj:6)
t_x_1495                                            1 	(obj:19)
t_x_1496                                            1 	(obj:13)
t_x_1503                                            1 	(obj:4)
t_x_1504                                            1 	(obj:8)
t_x_1512                                            1 	(obj:12)
t_x_1513                                            1 	(obj:11)
t_x_1517                                            1 	(obj:8)
t_x_1518                                            1 	(obj:5)
t_x_1525                                            1 	(obj:1)
t_x_1526                                            1 	(obj:42)
t_x_1527                                            1 	(obj:0)
t_x_1530                                            1 	(obj:39)
t_x_1535                                            1 	(obj:11)
t_x_1542                                            1 	(obj:10)
t_x_1545                                            1 	(obj:38)
t_x_1553                                            1 	(obj:3)
t_x_1555                                            1 	(obj:19)
t_x_1556                                            1 	(obj:9)
t_x_1558                                            1 	(obj:25)
t_x_1560                                            1 	(obj:11)
t_x_1561                                            1 	(obj:18)
t_x_1562                                            1 	(obj:2)
t_x_1564                                            1 	(obj:11)
t_x_1567                                            1 	(obj:18)
t_x_1568                                            1 	(obj:20)
t_x_1569                                            1 	(obj:31)
t_x_1571                                            1 	(obj:12)
t_x_1578                                            1 	(obj:16)
t_x_1579                                            1 	(obj:22)
t_x_1583                                            1 	(obj:50)
t_x_1585                                            1 	(obj:24)
t_x_1587                                            1 	(obj:31)
t_x_1592                                            1 	(obj:13)
t_x_1595                                            1 	(obj:30)
t_x_1596                                            1 	(obj:13)
t_x_1599                                            1 	(obj:1)
t_x_1600                                            1 	(obj:29)
t_x_1601                                            1 	(obj:31)
t_x_1602                                            1 	(obj:20)
t_x_1605                                            1 	(obj:44)
t_x_1609                                            1 	(obj:3)
t_x_1618                                            1 	(obj:33)
t_x_1619                                            1 	(obj:3)
t_x_1628                                            1 	(obj:17)
t_x_1632                                            1 	(obj:60)
t_x_1638                                            1 	(obj:0)
t_x_1641                                            1 	(obj:1)
t_x_1642                                            1 	(obj:3)
t_x_1644                                            1 	(obj:37)
t_x_1645                                            1 	(obj:1)
t_x_1648                                            1 	(obj:19)
t_x_1653                                            1 	(obj:28)
t_x_1655                                            1 	(obj:9)
t_x_1660                                            1 	(obj:43)
t_x_1663                                            1 	(obj:34)
t_x_1667                                            1 	(obj:37)
t_x_1668                                            1 	(obj:7)
t_x_1669                                            1 	(obj:17)
t_x_1671                                            1 	(obj:20)
t_x_1675                                            1 	(obj:44)
t_x_1676                                            1 	(obj:17)
t_x_1681                                            1 	(obj:36)
t_x_1682                                            1 	(obj:5)
t_x_1688                                            1 	(obj:38)
t_x_1690                                            1 	(obj:25)
t_x_1694                                            1 	(obj:13)
t_x_1695                                            1 	(obj:14)
t_x_1696                                            1 	(obj:10)
t_x_1698                                            1 	(obj:12)
t_x_1700                                            1 	(obj:29)
t_x_1701                                            1 	(obj:29)
t_x_1702                                            1 	(obj:37)
t_x_1703                                            1 	(obj:27)
t_x_1704                                            1 	(obj:20)
t_x_1708                                            1 	(obj:19)
t_x_1709                                            1 	(obj:5)
t_x_1712                                            1 	(obj:10)
t_x_1713                                            1 	(obj:20)
t_x_1715                                            1 	(obj:28)
t_x_1716                                            1 	(obj:10)
t_x_1723                                            1 	(obj:10)
t_x_1724                                            1 	(obj:14)
t_x_1725                                            1 	(obj:6)
t_x_1728                                            1 	(obj:42)
t_x_1730                                            1 	(obj:19)
t_x_1732                                            1 	(obj:15)
t_x_1739                                            1 	(obj:7)
t_x_1744                                            1 	(obj:31)
t_x_1745                                            1 	(obj:8)
t_x_1746                                            1 	(obj:36)
t_x_1751                                            1 	(obj:28)
t_x_1752                                            1 	(obj:25)
t_x_1755                                            1 	(obj:18)
t_x_1772                                            1 	(obj:40)
t_x_1773                                            1 	(obj:8)
t_x_1776                                            1 	(obj:7)
t_x_1777                                            1 	(obj:4)
t_x_1778                                            1 	(obj:9)
t_x_1779                                            1 	(obj:50)
t_x_1780                                            1 	(obj:7)
t_x_1782                                            1 	(obj:8)
t_x_1789                                            1 	(obj:8)
t_x_1800                                            1 	(obj:35)
t_x_1807                                            1 	(obj:5)
t_x_1814                                            1 	(obj:31)
t_x_1816                                            1 	(obj:36)
t_x_1818                                            1 	(obj:13)
t_x_1824                                            1 	(obj:0)
t_x_1826                                            1 	(obj:1)
t_x_1831                                            1 	(obj:25)
t_x_1834                                            1 	(obj:23)
t_x_1836                                            1 	(obj:20)
t_x_1839                                            1 	(obj:22)
t_x_1842                                            1 	(obj:0)
t_x_1849                                            1 	(obj:9)
t_x_1850                                            1 	(obj:2)
t_x_1851                                            1 	(obj:2)
t_x_1853                                            1 	(obj:8)
t_x_1861                                            1 	(obj:16)
t_x_1864                                            1 	(obj:23)
t_x_1868                                            1 	(obj:47)
t_x_1869                                            1 	(obj:2)
t_x_1870                                            1 	(obj:5)
t_x_1872                                            1 	(obj:8)
t_x_1877                                            1 	(obj:19)
t_x_1879                                            1 	(obj:17)
t_x_1886                                            1 	(obj:29)
t_x_1896                                            1 	(obj:10)
t_x_1901                                            1 	(obj:36)
t_x_1902                                            1 	(obj:28)
t_x_1905                                            1 	(obj:39)
t_x_1906                                            1 	(obj:22)
t_x_1909                                            1 	(obj:25)
t_x_1912                                            1 	(obj:20)
t_x_1916                                            1 	(obj:7)
t_x_1922                                            1 	(obj:19)
t_x_1924                                            1 	(obj:17)
t_x_1926                                            1 	(obj:8)
t_x_1928                                            1 	(obj:2)
t_x_1929                                            1 	(obj:50)
t_x_1933                                            1 	(obj:17)
t_x_1938                                            1 	(obj:22)
t_x_1943                                            1 	(obj:15)
t_x_1954                                            1 	(obj:31)
t_x_1956                                            1 	(obj:36)
t_x_1960                                            1 	(obj:0)
t_x_1964                                            1 	(obj:25)
t_x_1970                                            1 	(obj:18)
t_x_1973                                            1 	(obj:29)
t_x_1977                                            1 	(obj:4)
t_x_1978                                            1 	(obj:4)
t_x_1986                                            1 	(obj:16)
t_x_1987                                            1 	(obj:0)
t_x_1992                                            1 	(obj:25)
t_x_1995                                            1 	(obj:10)
t_x_1997                                            1 	(obj:8)
t_x_1998                                            1 	(obj:19)
